decision_x1=[0,4];
decision_x2=[0,4];
decision_x3=[0,4];
decision_x4=[0,4];
decision_x5=[0,4];
random_y1=[0,4];
constraint_x3_x1=[
0,1,5.5|
0,2,6.8|
0,3,3.7|
0,4,4.5|
1,0,3.9|
1,2,4.8|
1,3,3.4|
1,4,0.55|
2,0,7.7|
2,1,3.2|
2,3,4.6|
2,4,3.7|
3,0,2.5|
3,1,7|
3,2,1.1|
3,4,2.2|
4,0,2.8|
4,1,5.7|
4,2,3.6|
4,3,6.4|
];
constraint_x4_x1=[
0,1,0.62|
0,2,8|
0,3,2|
0,4,6.3|
1,0,6.9|
1,2,5.8|
1,3,9.3|
1,4,9.9|
2,0,4.6|
2,1,6.4|
2,3,7|
2,4,8.5|
3,0,8.4|
3,1,4.8|
3,2,0.63|
3,4,9.1|
4,0,7.6|
4,1,9.8|
4,2,5.9|
4,3,7.2|
];
constraint_x5_x1=[
0,1,6.9|
0,2,3.5|
0,3,7.4|
0,4,3.2|
1,0,4.3|
1,2,6.6|
1,3,0.22|
1,4,3|
2,0,2.9|
2,1,1.7|
2,3,7.4|
2,4,7.4|
3,0,9.7|
3,1,0.41|
3,2,3.8|
3,4,5.5|
4,0,8.6|
4,1,5.6|
4,2,2.1|
4,3,1.4|
];
constraint_x5_x2=[
0,1,0.3|
0,2,7.4|
0,3,5|
0,4,9.2|
1,0,9.3|
1,2,9.5|
1,3,8.2|
1,4,9|
2,0,2.6|
2,1,9.9|
2,3,2.2|
2,4,8.2|
3,0,0.36|
3,1,3.7|
3,2,1|
3,4,5.9|
4,0,0.03|
4,1,3.6|
4,2,2.9|
4,3,8|
];
constraint_x5_x4=[
0,1,6.6|
0,2,8|
0,3,6.3|
0,4,3.2|
1,0,2.5|
1,2,0.83|
1,3,3.3|
1,4,0.97|
2,0,7.7|
2,1,9.8|
2,3,5.5|
2,4,9.6|
3,0,9.6|
3,1,5.2|
3,2,9.9|
3,4,7.3|
4,0,1.2|
4,1,6.7|
4,2,8|
4,3,0.38|
];
constraint_x1_y1=[
0,0,1.6|
0,1,2.9|
0,2,9.1|
0,3,0.47|
0,4,7.2|
1,0,8.9|
1,1,5|
1,2,9.2|
1,3,6.4|
1,4,0.72|
2,0,8.4|
2,1,6.5|
2,2,3.8|
2,3,2.1|
2,4,2.2|
3,0,1.8|
3,1,1.6|
3,2,7.9|
3,3,0.91|
3,4,9.1|
4,0,4.4|
4,1,1|
4,2,2.6|
4,3,6.6|
4,4,3.7|
];
initial_distribution_y1=[0.25,0.061,0.23,0.25,0.2];
transition_y1=[
0.32,0.15,0.22,0.2,0.11|
0.3,0.095,0.22,0.095,0.29|
0.2,0.075,0.37,0.16,0.2|
0.16,0.44,0.15,0.045,0.21|
0.19,0.42,0.19,0.12,0.083|
];
